44 9 30 80 29 7 4
100
100
50
50
50
130
50
50
50
50
50
50
50
50
130
100
100
50
50
50
50
130
100
100
50
50
50
50
130
160
1
1
2
1
2
0
0
0
0
0
0
0
1
1
1
1
1
2
1
2
1
0
1
1
2
1
1
1
1
1
2
3
1
1
1
1
1
1
1
1
1
1
1
1
1
28
2
1
2
0
0
0
0
0
0
0
1
1
1
1
1
1
1
8
0
0
0
0
1
1
1
1
1
1
1
11
1
1
1
1
0
1
1
1
1
1
0
0
1
1
1
1
1
1
1
1
1
1
1
1
2
2
2
2
2
2
2
2
2
2
2
2
3
3
3
3
3
3
3
3
3
3
3
3
3
4
4
4
4
4
4
4
1
1
2
1
2
1
1
1
1
1
1
1
1
1
1
1
2
2
1
3
1
1
1
1
1
1
1
1
1
1
1
3
1
1
1
1
1
1
1
1
1
1
1
1
1
1
1
0
1
1
1
1
1
1
1
1
0
0
0
0
0
0
1
1
0
1
1
1
0
0
0
0
0
0
0
1
0
0
0
0
0
0
0
0
0
0
0
0
